results/x-long/X-n190-k8.vrp_seed-11.out
16980	1102
