results/x-long/X-n190-k8.vrp_seed-11.vrp.sol
Route #1: 131 118 31 99 45 149 139 72 133 156 129 108 103 34 4 128 163 110 171 120 13 66 63 57 19 105
Route #2: 14 16 67 51 93 75 121 158 113 107 33 162 7 155 17 79 60 116 82 122 11 175 117 26 49 119 106
Route #3: 170 166 157 173 132 134 161 74 111 23 164 69 178 21 50 94 115 145 81 142 159 102
Route #4: 188 64 25 183 136 167 148 98 141 70 185 18 84 153 180 61 32 40 76 90 42 100 8 56 130 68 144 92
Route #5: 46 179 62 59 96 3 15 27 187 124 140 189 154 53 20 65 114 9 91 55 135
Route #6: 168 78 147 86 125 137 151 174 48 54 126 181 41 152 87 186 146 177 123 52 71 101 47 5 176 12 24 97 143 95
Route #7: 73 112 169 80 150 30 39 36 22 77 38 2 6 35 109 89 104 85 138 28 58 43 10
Route #8: 172 127 44 88 165 1 184 160 182 83 29 37
Cost 16980.000000